
Gurobi 9.1.2 (linux64) logging started Wed Nov 24 10:33:29 2021

Changed value of parameter LogFile to lemke_square_v-(2, 5).log-s20-l10.log
   Prev:   Default: 
Changed value of parameter Threads to 32
   Prev: 0  Min: 0  Max: 1024  Default: 0
Changed value of parameter TimeLimit to 3600.0
   Prev: inf  Min: 0.0  Max: inf  Default: inf
Changed value of parameter MIPGap to 0.4
   Prev: 0.0001  Min: 0.0  Max: inf  Default: 0.0001
Warning: variable name "X[(7, 4),(7, 3)]" has a space
Warning: constraint name "flow-constr-t0-v(3, 0)" has a space
Warning: to let Gurobi read it back, use rlp format
Gurobi Optimizer version 9.1.2 build v9.1.2rc0 (linux64)
Thread count: 16 physical cores, 32 logical processors, using up to 32 threads
Optimize a model with 6013 rows, 5440 columns and 20670 nonzeros
Model fingerprint: 0xc6131345
Variable types: 0 continuous, 5440 integer (4800 binary)
Coefficient statistics:
  Matrix range     [1e+00, 1e+03]
  Objective range  [1e-01, 1e-01]
  Bounds range     [1e+00, 5e+02]
  RHS range        [1e+00, 1e+03]
Presolve removed 517 rows and 550 columns
Presolve time: 0.04s
Presolved: 5496 rows, 4890 columns, 18270 nonzeros
Variable types: 0 continuous, 4890 integer (4250 binary)

Root relaxation: objective 6.400000e+01, 127 iterations, 0.00 seconds

    Nodes    |    Current Node    |     Objective Bounds      |     Work
 Expl Unexpl |  Obj  Depth IntInf | Incumbent    BestBd   Gap | It/Node Time

     0     0   64.00000    0   44          -   64.00000      -     -    0s
     0     0   64.00000    0   87          -   64.00000      -     -    0s
     0     0   64.00000    0   87          -   64.00000      -     -    0s
     0     0   64.00000    0   42          -   64.00000      -     -    0s
H    0     0                     266.5000000   64.00000  76.0%     -    0s
     0     0   64.00000    0   42  266.50000   64.00000  76.0%     -    0s
H    0     0                     195.6000000   64.00000  67.3%     -    0s
H    0     0                     187.1000000   64.00000  65.8%     -    0s
     0     0   64.00000    0   48  187.10000   64.00000  65.8%     -    0s
     0     0   64.00000    0   48  187.10000   64.00000  65.8%     -    0s
H    0     0                     136.9000000   64.00000  53.3%     -    1s
     0     2   64.00000    0   46  136.90000   64.00000  53.3%     -    1s
H   33    64                     136.8000000   64.00000  53.2%  54.5    1s
H   34    64                     134.9000000   64.00000  52.6%  53.8    1s
H   50    64                     134.8000000   64.00000  52.5%  49.1    1s
H  127   160                     128.8000000   64.00000  50.3%  33.6    2s
H  131   160                     124.7000000   64.00000  48.7%  32.8    2s
H  158   160                     118.0000000   64.00000  45.8%  28.5    2s
H  159   192                     110.7000000   64.00000  42.2%  28.3    3s
H  160   192                      95.0000000   64.00000  32.6%  28.1    3s
H  162   192                      92.0000000   64.00000  30.4%  27.8    3s
H  164   192                      91.6000000   64.00000  30.1%  27.5    3s
H  167   192                      89.1000000   64.00000  28.2%  27.1    3s
H  171   192                      87.9000000   64.00000  27.2%  26.5    3s
H  181   192                      86.9000000   64.00000  26.4%  25.2    3s

Cutting planes:
  Gomory: 3
  Cover: 109
  Implied bound: 113
  Clique: 14
  MIR: 42
  StrongCG: 3
  Flow cover: 20
  RLT: 10
  Relax-and-lift: 42

Explored 191 nodes (6867 simplex iterations) in 3.86 seconds
Thread count was 32 (of 32 available processors)

Solution count 10: 86.9 87.9 89.1 ... 128.8

Optimal solution found (tolerance 4.00e-01)
Best objective 8.690000000000e+01, best bound 6.400000000000e+01, gap 26.3521%

Gurobi 9.1.2 (linux64) logging started Wed Nov 24 12:43:47 2021

Changed value of parameter LogFile to lemke_square_v-(2, 5).log-s20-l10.log
   Prev:   Default: 
Changed value of parameter Threads to 32
   Prev: 0  Min: 0  Max: 1024  Default: 0
Changed value of parameter TimeLimit to 3600.0
   Prev: inf  Min: 0.0  Max: inf  Default: inf
Changed value of parameter MIPGap to 0.3
   Prev: 0.0001  Min: 0.0  Max: inf  Default: 0.0001
Warning: variable name "X[(7, 4),(7, 3)]" has a space
Warning: constraint name "flow-constr-t0-v(3, 0)" has a space
Warning: to let Gurobi read it back, use rlp format
Gurobi Optimizer version 9.1.2 build v9.1.2rc0 (linux64)
Thread count: 16 physical cores, 32 logical processors, using up to 32 threads
Optimize a model with 6013 rows, 5440 columns and 20670 nonzeros
Model fingerprint: 0xc6131345
Variable types: 0 continuous, 5440 integer (4800 binary)
Coefficient statistics:
  Matrix range     [1e+00, 1e+03]
  Objective range  [1e-01, 1e-01]
  Bounds range     [1e+00, 5e+02]
  RHS range        [1e+00, 1e+03]
Presolve removed 517 rows and 550 columns
Presolve time: 0.04s
Presolved: 5496 rows, 4890 columns, 18270 nonzeros
Variable types: 0 continuous, 4890 integer (4250 binary)

Root relaxation: objective 6.400000e+01, 127 iterations, 0.00 seconds

    Nodes    |    Current Node    |     Objective Bounds      |     Work
 Expl Unexpl |  Obj  Depth IntInf | Incumbent    BestBd   Gap | It/Node Time

     0     0   64.00000    0   44          -   64.00000      -     -    0s
     0     0   64.00000    0   87          -   64.00000      -     -    0s
     0     0   64.00000    0   87          -   64.00000      -     -    0s
     0     0   64.00000    0   42          -   64.00000      -     -    0s
H    0     0                     266.5000000   64.00000  76.0%     -    0s
     0     0   64.00000    0   42  266.50000   64.00000  76.0%     -    0s
H    0     0                     195.6000000   64.00000  67.3%     -    0s
H    0     0                     187.1000000   64.00000  65.8%     -    0s
     0     0   64.00000    0   48  187.10000   64.00000  65.8%     -    0s
     0     0   64.00000    0   48  187.10000   64.00000  65.8%     -    0s
H    0     0                     136.9000000   64.00000  53.3%     -    1s
     0     2   64.00000    0   46  136.90000   64.00000  53.3%     -    1s
H   33    64                     136.8000000   64.00000  53.2%  54.5    1s
H   34    64                     134.9000000   64.00000  52.6%  53.8    1s
H   50    64                     134.8000000   64.00000  52.5%  49.1    1s
H  127   160                     128.8000000   64.00000  50.3%  33.6    2s
H  131   160                     124.7000000   64.00000  48.7%  32.8    2s
H  158   160                     118.0000000   64.00000  45.8%  28.5    2s
H  159   192                     110.7000000   64.00000  42.2%  28.3    3s
H  160   192                      95.0000000   64.00000  32.6%  28.1    3s
H  162   192                      92.0000000   64.00000  30.4%  27.8    3s
H  164   192                      91.6000000   64.00000  30.1%  27.5    3s
H  167   192                      89.1000000   64.00000  28.2%  27.1    3s
H  171   192                      87.9000000   64.00000  27.2%  26.5    3s
H  181   192                      86.9000000   64.00000  26.4%  25.2    3s

Cutting planes:
  Gomory: 3
  Cover: 109
  Implied bound: 113
  Clique: 14
  MIR: 42
  StrongCG: 3
  Flow cover: 20
  RLT: 10
  Relax-and-lift: 42

Explored 191 nodes (6867 simplex iterations) in 3.88 seconds
Thread count was 32 (of 32 available processors)

Solution count 10: 86.9 87.9 89.1 ... 128.8

Optimal solution found (tolerance 3.00e-01)
Best objective 8.690000000000e+01, best bound 6.400000000000e+01, gap 26.3521%
